NAME: A-n33-k5-C11-V2
TYPE: SoftCluVRP
DIMENSION:  33 
VEHICLES:  2 
GVRP_SETS:  11 
CAPACITY:  100 
EDGE_WEIGHT_TYPE: EUC_2D
NODE_COORD_SECTION 
1 42.000000 68.000000
2 77.000000 97.000000
3 28.000000 64.000000
4 77.000000 39.000000
5 32.000000 33.000000
6 32.000000 8.000000
7 42.000000 92.000000
8 8.000000 3.000000
9 7.000000 14.000000
10 82.000000 17.000000
11 48.000000 13.000000
12 53.000000 82.000000
13 39.000000 27.000000
14 7.000000 24.000000
15 67.000000 98.000000
16 54.000000 52.000000
17 72.000000 43.000000
18 73.000000 3.000000
19 59.000000 77.000000
20 58.000000 97.000000
21 23.000000 43.000000
22 68.000000 98.000000
23 47.000000 62.000000
24 52.000000 72.000000
25 32.000000 88.000000
26 39.000000 7.000000
27 17.000000 8.000000
28 38.000000 7.000000
29 58.000000 74.000000
30 82.000000 67.000000
31 42.000000 7.000000
32 68.000000 82.000000
33 7.000000 48.000000
GVRP_SET_SECTION 
 1 8  9  14  27 -1
 2  2  15  22 -1
 3  10  18 -1
 4  3 -1
 5  13  5  6  11  26  28  31 -1
 6  7  20  25 -1
 7  30 -1
 8  16  23 -1
 9  33  21 -1
 10  4  17 -1
 11  19  12  24  29  32 -1
 DEMAND_SECTION
 1 13 
 2 8 
 3 21 
 4 23 
 5 15 
 6 15 
 7 8 
 8 18 
 9 5 
 10 12 
 11 14 
EOF
